NAME TOMinMax-R2D1T1F55Tmax50Iter2
* Max problem is converted into Min one
ROWS
 N  OBJ
 L  c1[K0]  
 L  c1[K1]  
 E  c2_1    
 E  c2_2    
 E  c3_1[K0]
 E  c3_1[K1]
 E  c3_2[K0]
 E  c3_2[K1]
 E  c3_3[K0]
 E  c3_3[K1]
 E  c3_4[K0]
 E  c3_4[K1]
 L  c4[T0]  
 E  c5_1[T0,K0]
 E  c5_1[T0,K1]
 E  c5_1[D0,K0]
 E  c5_1[D0,K1]
 E  c5_2[T0,K0]
 E  c5_2[T0,K1]
 E  c5_3[T0,K0]
 E  c5_3[T0,K1]
 E  c6[K0]  
 E  c6[K1]  
 E  c7[T0,K0]
 E  c7[T0,K1]
 E  c8[D0,K0]
 E  c8[D0,K1]
 L  c9[T0,D0,K0]
 L  c9[T0,D0,K1]
 L  c9[T0,S0,K0]
 L  c9[T0,S0,K1]
 L  c9[T0,E0,K0]
 L  c9[T0,E0,K1]
 L  c9[D0,T0,K0]
 L  c9[D0,T0,K1]
 L  c9[D0,S0,K0]
 L  c9[D0,S0,K1]
 L  c9[D0,E0,K0]
 L  c9[D0,E0,K1]
 L  c9[S0,T0,K0]
 L  c9[S0,T0,K1]
 L  c9[S0,D0,K0]
 L  c9[S0,D0,K1]
 L  c9[S0,E0,K0]
 L  c9[S0,E0,K1]
 L  c9[E0,T0,K0]
 L  c9[E0,T0,K1]
 L  c9[E0,D0,K0]
 L  c9[E0,D0,K1]
 L  c9[E0,S0,K0]
 L  c9[E0,S0,K1]
 L  c12[D0,T0,K0]
 L  c12[D0,T0,K1]
 L  c12[S0,T0,K0]
 L  c12[S0,T0,K1]
 G  c13[D0,T0,K0]
 G  c13[D0,T0,K1]
 G  c13[S0,T0,K0]
 G  c13[S0,T0,K1]
 G  c14[T0,D0,K0]
 G  c14[T0,D0,K1]
 G  c14[T0,E0,K0]
 G  c14[T0,E0,K1]
 L  c15[T0] 
 L  c16[K0] 
 L  c16[K1] 
COLUMNS
    MARKER    'MARKER'                 'INTORG'
    x[T0,D0,K0]  c1[K0]    1.5409335447701684e+01
    x[T0,D0,K0]  c5_1[T0,K0]  -1
    x[T0,D0,K0]  c5_1[D0,K0]  1
    x[T0,D0,K0]  c5_3[T0,K0]  1
    x[T0,D0,K0]  c6[K0]    -1
    x[T0,D0,K0]  c7[T0,K0]  -1
    x[T0,D0,K0]  c9[T0,D0,K0]  -1
    x[T0,D0,K0]  c14[T0,D0,K0]  -1000000
    x[T0,D0,K0]  c16[K0]   1.5409335447701684e+01
    x[T0,D0,K1]  c1[K1]    1.5409335447701684e+01
    x[T0,D0,K1]  c5_1[T0,K1]  -1
    x[T0,D0,K1]  c5_1[D0,K1]  1
    x[T0,D0,K1]  c5_3[T0,K1]  1
    x[T0,D0,K1]  c6[K1]    -1
    x[T0,D0,K1]  c7[T0,K1]  -1
    x[T0,D0,K1]  c9[T0,D0,K1]  -1
    x[T0,D0,K1]  c14[T0,D0,K1]  -1000000
    x[T0,D0,K1]  c16[K1]   1.5409335447701684e+01
    x[T0,S0,K0]  c1[K0]    1.5409335447701684e+01
    x[T0,S0,K0]  c3_2[K0]  1
    x[T0,S0,K0]  c5_3[T0,K0]  1
    x[T0,S0,K0]  c6[K0]    -1
    x[T0,S0,K0]  c7[T0,K0]  -1
    x[T0,S0,K0]  c9[T0,S0,K0]  -1
    x[T0,S0,K0]  c16[K0]   1.5409335447701684e+01
    x[T0,S0,K1]  c1[K1]    1.5409335447701684e+01
    x[T0,S0,K1]  c3_2[K1]  1
    x[T0,S0,K1]  c5_3[T0,K1]  1
    x[T0,S0,K1]  c6[K1]    -1
    x[T0,S0,K1]  c7[T0,K1]  -1
    x[T0,S0,K1]  c9[T0,S0,K1]  -1
    x[T0,S0,K1]  c16[K1]   1.5409335447701684e+01
    x[T0,E0,K0]  c1[K0]    1.5409335447701684e+01
    x[T0,E0,K0]  c2_2      1
    x[T0,E0,K0]  c3_3[K0]  1
    x[T0,E0,K0]  c5_1[T0,K0]  -1
    x[T0,E0,K0]  c5_3[T0,K0]  1
    x[T0,E0,K0]  c6[K0]    -1
    x[T0,E0,K0]  c7[T0,K0]  -1
    x[T0,E0,K0]  c9[T0,E0,K0]  -1
    x[T0,E0,K0]  c14[T0,E0,K0]  -1000000
    x[T0,E0,K0]  c16[K0]   1.5409335447701684e+01
    x[T0,E0,K1]  c1[K1]    1.5409335447701684e+01
    x[T0,E0,K1]  c2_2      1
    x[T0,E0,K1]  c3_3[K1]  1
    x[T0,E0,K1]  c5_1[T0,K1]  -1
    x[T0,E0,K1]  c5_3[T0,K1]  1
    x[T0,E0,K1]  c6[K1]    -1
    x[T0,E0,K1]  c7[T0,K1]  -1
    x[T0,E0,K1]  c9[T0,E0,K1]  -1
    x[T0,E0,K1]  c14[T0,E0,K1]  -1000000
    x[T0,E0,K1]  c16[K1]   1.5409335447701684e+01
    x[D0,T0,K0]  c1[K0]    1.5409335447701684e+01
    x[D0,T0,K0]  c5_1[T0,K0]  1
    x[D0,T0,K0]  c5_1[D0,K0]  -1
    x[D0,T0,K0]  c5_2[T0,K0]  1
    x[D0,T0,K0]  c9[D0,T0,K0]  -1
    x[D0,T0,K0]  c12[D0,T0,K0]  1000000
    x[D0,T0,K0]  c13[D0,T0,K0]  -1000000
    x[D0,T0,K0]  c16[K0]   1.5409335447701684e+01
    x[D0,T0,K1]  c1[K1]    1.5409335447701684e+01
    x[D0,T0,K1]  c5_1[T0,K1]  1
    x[D0,T0,K1]  c5_1[D0,K1]  -1
    x[D0,T0,K1]  c5_2[T0,K1]  1
    x[D0,T0,K1]  c9[D0,T0,K1]  -1
    x[D0,T0,K1]  c12[D0,T0,K1]  1000000
    x[D0,T0,K1]  c13[D0,T0,K1]  -1000000
    x[D0,T0,K1]  c16[K1]   1.5409335447701684e+01
    x[D0,S0,K0]  c3_2[K0]  1
    x[D0,S0,K0]  c9[D0,S0,K0]  -1
    x[D0,S0,K1]  c3_2[K1]  1
    x[D0,S0,K1]  c9[D0,S0,K1]  -1
    x[D0,E0,K0]  c2_2      1
    x[D0,E0,K0]  c3_3[K0]  1
    x[D0,E0,K0]  c5_1[D0,K0]  -1
    x[D0,E0,K0]  c9[D0,E0,K0]  -1
    x[D0,E0,K1]  c2_2      1
    x[D0,E0,K1]  c3_3[K1]  1
    x[D0,E0,K1]  c5_1[D0,K1]  -1
    x[D0,E0,K1]  c9[D0,E0,K1]  -1
    x[S0,T0,K0]  c1[K0]    1.5409335447701684e+01
    x[S0,T0,K0]  c2_1      1
    x[S0,T0,K0]  c3_1[K0]  1
    x[S0,T0,K0]  c5_1[T0,K0]  1
    x[S0,T0,K0]  c5_2[T0,K0]  1
    x[S0,T0,K0]  c9[S0,T0,K0]  -1
    x[S0,T0,K0]  c12[S0,T0,K0]  1000000
    x[S0,T0,K0]  c13[S0,T0,K0]  -1000000
    x[S0,T0,K0]  c16[K0]   1.5409335447701684e+01
    x[S0,T0,K1]  c1[K1]    1.5409335447701684e+01
    x[S0,T0,K1]  c2_1      1
    x[S0,T0,K1]  c3_1[K1]  1
    x[S0,T0,K1]  c5_1[T0,K1]  1
    x[S0,T0,K1]  c5_2[T0,K1]  1
    x[S0,T0,K1]  c9[S0,T0,K1]  -1
    x[S0,T0,K1]  c12[S0,T0,K1]  1000000
    x[S0,T0,K1]  c13[S0,T0,K1]  -1000000
    x[S0,T0,K1]  c16[K1]   1.5409335447701684e+01
    x[S0,D0,K0]  c2_1      1
    x[S0,D0,K0]  c3_1[K0]  1
    x[S0,D0,K0]  c5_1[D0,K0]  1
    x[S0,D0,K0]  c9[S0,D0,K0]  -1
    x[S0,D0,K1]  c2_1      1
    x[S0,D0,K1]  c3_1[K1]  1
    x[S0,D0,K1]  c5_1[D0,K1]  1
    x[S0,D0,K1]  c9[S0,D0,K1]  -1
    x[S0,E0,K0]  c2_1      1
    x[S0,E0,K0]  c2_2      1
    x[S0,E0,K0]  c3_1[K0]  1
    x[S0,E0,K0]  c3_3[K0]  1
    x[S0,E0,K0]  c9[S0,E0,K0]  -1
    x[S0,E0,K1]  c2_1      1
    x[S0,E0,K1]  c2_2      1
    x[S0,E0,K1]  c3_1[K1]  1
    x[S0,E0,K1]  c3_3[K1]  1
    x[S0,E0,K1]  c9[S0,E0,K1]  -1
    x[E0,T0,K0]  c1[K0]    1.5409335447701684e+01
    x[E0,T0,K0]  c3_4[K0]  1
    x[E0,T0,K0]  c5_2[T0,K0]  1
    x[E0,T0,K0]  c9[E0,T0,K0]  -1
    x[E0,T0,K0]  c16[K0]   1.5409335447701684e+01
    x[E0,T0,K1]  c1[K1]    1.5409335447701684e+01
    x[E0,T0,K1]  c3_4[K1]  1
    x[E0,T0,K1]  c5_2[T0,K1]  1
    x[E0,T0,K1]  c9[E0,T0,K1]  -1
    x[E0,T0,K1]  c16[K1]   1.5409335447701684e+01
    x[E0,D0,K0]  c3_4[K0]  1
    x[E0,D0,K0]  c9[E0,D0,K0]  -1
    x[E0,D0,K1]  c3_4[K1]  1
    x[E0,D0,K1]  c9[E0,D0,K1]  -1
    x[E0,S0,K0]  c3_2[K0]  1
    x[E0,S0,K0]  c3_4[K0]  1
    x[E0,S0,K0]  c9[E0,S0,K0]  -1
    x[E0,S0,K1]  c3_2[K1]  1
    x[E0,S0,K1]  c3_4[K1]  1
    x[E0,S0,K1]  c9[E0,S0,K1]  -1
    y[T0,K0]  OBJ       -1
    y[T0,K0]  c4[T0]    1
    y[T0,K0]  c5_2[T0,K0]  -1
    y[T0,K0]  c5_3[T0,K0]  -1
    y[T0,K1]  OBJ       -1
    y[T0,K1]  c4[T0]    1
    y[T0,K1]  c5_2[T0,K1]  -1
    y[T0,K1]  c5_3[T0,K1]  -1
    MARKER    'MARKER'                 'INTEND'
    r[T0]     c12[D0,T0,K0]  1
    r[T0]     c12[D0,T0,K1]  1
    r[T0]     c12[S0,T0,K0]  1
    r[T0]     c12[S0,T0,K1]  1
    r[T0]     c13[D0,T0,K0]  1
    r[T0]     c13[D0,T0,K1]  1
    r[T0]     c13[S0,T0,K0]  1
    r[T0]     c13[S0,T0,K1]  1
    r[T0]     c14[T0,D0,K0]  1
    r[T0]     c14[T0,D0,K1]  1
    r[T0]     c14[T0,E0,K0]  1
    r[T0]     c14[T0,E0,K1]  1
    r[T0]     c15[T0]   1
    MARKER    'MARKER'                 'INTORG'
    p[T0,D0,K0]  c7[T0,K0]  -1
    p[T0,D0,K0]  c8[D0,K0]  1
    p[T0,D0,K0]  c9[T0,D0,K0]  1
    p[T0,D0,K1]  c7[T0,K1]  -1
    p[T0,D0,K1]  c8[D0,K1]  1
    p[T0,D0,K1]  c9[T0,D0,K1]  1
    p[T0,S0,K0]  c6[K0]    -1
    p[T0,S0,K0]  c7[T0,K0]  -1
    p[T0,S0,K0]  c9[T0,S0,K0]  1
    p[T0,S0,K1]  c6[K1]    -1
    p[T0,S0,K1]  c7[T0,K1]  -1
    p[T0,S0,K1]  c9[T0,S0,K1]  1
    p[T0,E0,K0]  c7[T0,K0]  -1
    p[T0,E0,K0]  c9[T0,E0,K0]  1
    p[T0,E0,K1]  c7[T0,K1]  -1
    p[T0,E0,K1]  c9[T0,E0,K1]  1
    p[D0,T0,K0]  c7[T0,K0]  1
    p[D0,T0,K0]  c8[D0,K0]  -1
    p[D0,T0,K0]  c9[D0,T0,K0]  1
    p[D0,T0,K1]  c7[T0,K1]  1
    p[D0,T0,K1]  c8[D0,K1]  -1
    p[D0,T0,K1]  c9[D0,T0,K1]  1
    p[D0,S0,K0]  c6[K0]    -1
    p[D0,S0,K0]  c8[D0,K0]  -1
    p[D0,S0,K0]  c9[D0,S0,K0]  1
    p[D0,S0,K1]  c6[K1]    -1
    p[D0,S0,K1]  c8[D0,K1]  -1
    p[D0,S0,K1]  c9[D0,S0,K1]  1
    p[D0,E0,K0]  c8[D0,K0]  -1
    p[D0,E0,K0]  c9[D0,E0,K0]  1
    p[D0,E0,K1]  c8[D0,K1]  -1
    p[D0,E0,K1]  c9[D0,E0,K1]  1
    p[S0,T0,K0]  c6[K0]    1
    p[S0,T0,K0]  c7[T0,K0]  1
    p[S0,T0,K0]  c9[S0,T0,K0]  1
    p[S0,T0,K1]  c6[K1]    1
    p[S0,T0,K1]  c7[T0,K1]  1
    p[S0,T0,K1]  c9[S0,T0,K1]  1
    p[S0,D0,K0]  c6[K0]    1
    p[S0,D0,K0]  c8[D0,K0]  1
    p[S0,D0,K0]  c9[S0,D0,K0]  1
    p[S0,D0,K1]  c6[K1]    1
    p[S0,D0,K1]  c8[D0,K1]  1
    p[S0,D0,K1]  c9[S0,D0,K1]  1
    p[S0,E0,K0]  c6[K0]    1
    p[S0,E0,K0]  c9[S0,E0,K0]  1
    p[S0,E0,K1]  c6[K1]    1
    p[S0,E0,K1]  c9[S0,E0,K1]  1
    p[E0,T0,K0]  c7[T0,K0]  1
    p[E0,T0,K0]  c9[E0,T0,K0]  1
    p[E0,T0,K1]  c7[T0,K1]  1
    p[E0,T0,K1]  c9[E0,T0,K1]  1
    p[E0,D0,K0]  c8[D0,K0]  1
    p[E0,D0,K0]  c9[E0,D0,K0]  1
    p[E0,D0,K1]  c8[D0,K1]  1
    p[E0,D0,K1]  c9[E0,D0,K1]  1
    p[E0,S0,K0]  c6[K0]    -1
    p[E0,S0,K0]  c9[E0,S0,K0]  1
    p[E0,S0,K1]  c6[K1]    -1
    p[E0,S0,K1]  c9[E0,S0,K1]  1
    MARKER    'MARKER'                 'INTEND'
    z         OBJ       0.0001
    z         c1[K0]    -1
    z         c1[K1]    -1
RHS
    RHS1      c2_1      2
    RHS1      c2_2      2
    RHS1      c3_1[K0]  1
    RHS1      c3_1[K1]  1
    RHS1      c3_3[K0]  1
    RHS1      c3_3[K1]  1
    RHS1      c4[T0]    1
    RHS1      c12[D0,T0,K0]  1.0000395906645523e+06
    RHS1      c12[D0,T0,K1]  1.0000395906645523e+06
    RHS1      c12[S0,T0,K0]  1.0000395906645523e+06
    RHS1      c12[S0,T0,K1]  1.0000395906645523e+06
    RHS1      c13[D0,T0,K0]  -9.9996040933544771e+05
    RHS1      c13[D0,T0,K1]  -9.9996040933544771e+05
    RHS1      c13[S0,T0,K0]  -9.9996040933544771e+05
    RHS1      c13[S0,T0,K1]  -9.9996040933544771e+05
    RHS1      c14[T0,D0,K0]  -9.9998459066455229e+05
    RHS1      c14[T0,D0,K1]  -9.9998459066455229e+05
    RHS1      c14[T0,E0,K0]  -9.9998459066455229e+05
    RHS1      c14[T0,E0,K1]  -9.9998459066455229e+05
    RHS1      c15[T0]   55
    RHS1      c16[K0]   50
    RHS1      c16[K1]   50
BOUNDS
 UP BND1      x[T0,D0,K0]  1
 UP BND1      x[T0,D0,K1]  1
 UP BND1      x[T0,S0,K0]  1
 UP BND1      x[T0,S0,K1]  1
 UP BND1      x[T0,E0,K0]  1
 UP BND1      x[T0,E0,K1]  1
 UP BND1      x[D0,T0,K0]  1
 UP BND1      x[D0,T0,K1]  1
 UP BND1      x[D0,S0,K0]  1
 UP BND1      x[D0,S0,K1]  1
 UP BND1      x[D0,E0,K0]  1
 UP BND1      x[D0,E0,K1]  1
 UP BND1      x[S0,T0,K0]  1
 UP BND1      x[S0,T0,K1]  1
 UP BND1      x[S0,D0,K0]  1
 UP BND1      x[S0,D0,K1]  1
 UP BND1      x[S0,E0,K0]  1
 UP BND1      x[S0,E0,K1]  1
 UP BND1      x[E0,T0,K0]  1
 UP BND1      x[E0,T0,K1]  1
 UP BND1      x[E0,D0,K0]  1
 UP BND1      x[E0,D0,K1]  1
 UP BND1      x[E0,S0,K0]  1
 UP BND1      x[E0,S0,K1]  1
 BV BND1      y[T0,K0]
 BV BND1      y[T0,K1]
 UP BND1      r[T0]     55
 LI BND1      p[T0,D0,K0]  0
 LI BND1      p[T0,D0,K1]  0
 LI BND1      p[T0,S0,K0]  0
 LI BND1      p[T0,S0,K1]  0
 LI BND1      p[T0,E0,K0]  0
 LI BND1      p[T0,E0,K1]  0
 LI BND1      p[D0,T0,K0]  0
 LI BND1      p[D0,T0,K1]  0
 LI BND1      p[D0,S0,K0]  0
 LI BND1      p[D0,S0,K1]  0
 LI BND1      p[D0,E0,K0]  0
 LI BND1      p[D0,E0,K1]  0
 LI BND1      p[S0,T0,K0]  0
 LI BND1      p[S0,T0,K1]  0
 LI BND1      p[S0,D0,K0]  0
 LI BND1      p[S0,D0,K1]  0
 LI BND1      p[S0,E0,K0]  0
 LI BND1      p[S0,E0,K1]  0
 LI BND1      p[E0,T0,K0]  0
 LI BND1      p[E0,T0,K1]  0
 LI BND1      p[E0,D0,K0]  0
 LI BND1      p[E0,D0,K1]  0
 LI BND1      p[E0,S0,K0]  0
 LI BND1      p[E0,S0,K1]  0
ENDATA
